/* Objective function */
/*APEX公司希望确定其某工厂每月生产27英寸和20英寸电视机的数量，
以实现利润最大化。市场调研显示，每月最多可售出40台27英寸型号和10台20英寸型号。
每月可用工时上限为500小时，其中27英寸电视机需20小时，20英寸电视机需10小时。
每售出一台27英寸电视机可获120英镑利润，每售出一台20英寸电视机可获80英镑利润。
此外，公司还附加了额外限制：两种型号的产量差值不得超过5台。*/
/*27 x1, 20 x2*/
max:120 x1 + 80 x2;

/* Variable bounds */
x1 <= 40;
x2 <= 10;
20 x1 + 10 x2 <=500;
x1-x2<=5;
x2-x1<=5;